Geometry = GenFormat {
3  C
O    H
1 1      0.000000000000000      0.000000000000012      0.111813068532462
2 2      0.000000000000000      0.782060584146960     -0.473322534266236
3 2     -0.000000000000000     -0.782060584146972     -0.473322534266226
}
Analysis = {
  CalculateForces = Yes
  ProjectStates = {}
  WriteEigenvectors = No
  WriteBandOut = Yes
  MullikenAnalysis = Yes
  WriteNetCharges = No
  AtomResolvedEnergies = No
}
Hamiltonian = DFTB {
  MaxAngularMomentum = {
    H = s
    O = p
  }
  SlaterKosterFiles = Type2FileNames {
    Prefix = /scratch/user/yuhsuanho/IR_agent_conda/auorgap-1.1.0/skfiles/
    Separator = "-"
    Suffix = ".skf"
    LowerCaseTypeName = No
  }
  Differentiation = FiniteDiff {
    Delta = 1.0000000000000000E-002
  }
  PolynomialRepulsive = {}
  SCC = No
  OldSKInterpolation = No
  SpinPolarisation = {}
  ElectricField = {}
  Solver = RelativelyRobust {}
  Charge = 0.0000000000000000
  OnSiteCorrection = {}
  Dispersion = {}
  Solvation = {}
  Electrostatics = GammaFunctional {}
  Filling = Fermi {
    Temperature = 0.0000000000000000
  }
}
Options = {
  WriteResultsTag = Yes
  WriteDetailedOut = Yes
  WriteAutotestTag = No
  WriteDetailedXML = No
  RandomSeed = 0
  WriteHS = No
  WriteRealHS = No
  MinimiseMemoryUsage = No
  ShowFoldedCoords = No
  TimingVerbosity = 1
  WriteCharges = Yes
  WriteChargesAsText = No
  BinaryAccessTypes = {
 "stream"
  }
}
ParserOptions = {
  IgnoreUnprocessedNodes = Yes
  ParserVersion = 14
  WriteHSDInput = Yes
  StopAfterParsing = No
}
Reks = None {}
Driver = {}
ExcitedState = {}
